NAME : gr202
TYPE : OP
DIMENSION : 202
COST_LIMIT : 6025
ROUTE_NODES : 17
ROUTE_SCORE : 995
ROUTE_COST : 5989
NODE_SEQUENCE_SECTION
1
51
52
55
54
57
58
59
60
61
62
63
65
64
72
71
69
-1
DEPOT_SECTION
1
-1
EOF
